from = [0, 0, 0, 1, 1, 1, 2, 2, 2, 3, 3, 3, 4, 4, 4, 5, 5, 5, 6, 6, 6, 7, 7, 7, 8, 8, 8, 9, 9, 9, 10, 10, 10, 11, 11, 11, 12, 12, 12, 13, 13, 13, 14, 14, 14, 15, 15, 15, 16, 16, 16, 17, 17, 17, 18, 18, 18, 19, 19, 19, 20, 20, 20, 21, 21, 21, 22, 22, 22, 23, 23, 23, 24, 24, 24, 25, 25, 25, 26, 26, 26, 27, 27, 27, 28, 28, 28, 29, 29, 29, 30, 30, 30, 31, 31, 31, 32, 32, 32, 33, 33, 33, 34, 34, 34, 35, 35, 35, 36, 36, 36, 37, 37, 37, 38, 38, 38, 39, 39, 39, 40, 40, 40, 41, 41, 41, 42, 42, 42, 43, 43, 43, 44, 44, 44, 45, 45, 45, 46, 46, 46, 47, 47, 47, 48, 48, 48, 49, 49, 49, 50, 50, 50, 51, 51, 51, 52, 52, 52, 53, 53, 53, 54, 54, 54, 55, 55, 55, 56, 56, 56, 57, 57, 57, 58, 58, 58, 59, 59, 59, 60, 60, 60, 61, 61, 61, 62, 62, 62, 63, 63, 63, 64, 64, 64, 65, 65, 65, 66, 66, 66, 67, 67, 67, 68, 68, 68, 69, 69, 69, 70, 70, 70, 71, 71, 71, 72, 72, 72, 73, 73, 73];
to = [1, 2, 3, 0, 2, 4, 0, 1, 5, 0, 2, 6, 1, 3, 7, 1, 4, 8, 2, 3, 9, 2, 5, 10, 3, 4, 11, 3, 6, 12, 4, 5, 13, 4, 7, 14, 5, 6, 15, 5, 8, 16, 6, 7, 17, 6, 9, 18, 7, 8, 19, 7, 10, 20, 8, 9, 21, 8, 11, 22, 9, 10, 23, 9, 12, 24, 10, 11, 25, 10, 13, 26, 11, 12, 27, 11, 14, 28, 12, 13, 29, 12, 15, 30, 13, 14, 31, 13, 16, 32, 14, 15, 33, 14, 17, 34, 15, 16, 35, 15, 18, 36, 16, 17, 37, 16, 19, 38, 17, 18, 39, 17, 20, 40, 18, 19, 41, 18, 21, 42, 19, 20, 43, 19, 22, 44, 20, 21, 45, 20, 23, 46, 21, 22, 47, 21, 24, 48, 22, 23, 49, 22, 25, 50, 23, 24, 51, 23, 26, 52, 24, 25, 53, 24, 27, 54, 25, 26, 55, 25, 28, 56, 26, 27, 57, 26, 29, 58, 27, 28, 59, 27, 30, 60, 28, 29, 61, 28, 31, 62, 29, 30, 63, 29, 32, 64, 30, 31, 65, 30, 33, 66];
r=0;
n=74;